50
15239

280 734
169 474
444 768
611 759
506 628
250 458
389 330
205 32
723 552
904 349
74 190
809 797
746 726
399 621
971 37
624 643
762 216
466 414
309 667
593 327
945 591
874 834
39 74
742 22
754 91
969 672
287 661
5 793
981 712
754 286
161 11
442 74
599 524
656 698
821 291
858 774
568 683
387 14
744 990
335 585
187 233
158 48
336 485
791 226
788 321
747 740
979 248
597 818
576 545
625 532
